NAME : portcgen-22-22
COMMENT : portcgen N=22, seed=22
TYPE : TSP
DIMENSION : 22
EDGE_WEIGHT_TYPE : EUC_2D
NODE_COORD_SECTION
1 19282 -163839
2 -156481 -23368
3 73129 371922
4 -46490 -74831
5 11681 342902
6 -148955 48796
7 138569 -172471
8 126626 -109970
9 -113141 440023
10 339929 17250
11 -160698 350785
12 -64132 -229868
13 346900 174247
14 -227869 -114854
15 136118 123936
16 124761 31719
17 207916 109139
18 240095 65155
19 17372 140689
20 36430 -298693
21 -226681 -31712
22 -279515 -415060
